44341.0
1 0 1 1 1 1 1 1 1 0 0 1 1 1 0 0 0 1 1 1 1 1 0 1 1 1 1 1 1 0 
18 19 21 27 2 12 21 27 18 28 4 28 13 13 28 18 3 20 27 0 18 21 5 24 23 18 27 19 4 2 19 19 4 21 27 6 20 8 24 21 18 8 6 4 8 19 13 21 19 20 24 24 24 21 8 6 11 8 18 25 4 0 7 8 13 11 5 17 28 25 18 12 19 8 23 23 20 23 8 24 23 0 26 25 4 13 6 5 27 7 28 6 25 25 2 3 11 6 0 28 28 21 25 18 4 0 4 24 27 3 19 4 27 12 12 8 28 7 17 8 26 11 17 19 26 21 2 11 26 17 28 24 25 20 23 8 3 3 28 20 12 27 11 11 25 5 24 21 27 25 24 17 23 0 8 11 2 21 3 13 13 27 23 24 5 27 5 4 3 21 5 20 19 20 26 2 0 20 4 20 5 21 2 19 12 8 28 23 0 21 2 21 6 4 7 12 7 21 23 19 